webassembly/ejemplos_dzn/15/folder15_json_2.dzn
TERM = { '.', 's(2)', 'in_10', 'in_1', 'local_0', 'local_1', 'in_6', 'in_2', 'in_4', 'in_3', 'in_9', 'in_8', 's(1)', 's(0)', 'in_11', 'in_7', 'in_5', 'in_0'};
null = '.';
s = 15;
n = 17;
ndeps = 6;
max_registers_sz = 5;
NR = 2;
registers = [|'local_0', 'in_5', |'local_1', 'in_9'|];
dependencies = [|'i32.store8_0', 'i32.store16_1', |'i32.store16_1', 'i32.store8_7', |'i32.store8_7', 'i32.load16_u_9', |'i32.load16_u_9', 'i32.store_10', |'i32.store_10', 'i32.store16_11', |'i32.store16_11', 'i32.load_13'|];
GET_ENUM = { GET1, GET2, GET3, GET4, GET5, GET6, GET7};
SET_ENUM = { SET1, SET2, SET3, SET4, SET5, SET6, SET7};
TEE_ENUM = { TEE1, TEE2, TEE3, TEE4, TEE5, TEE6, TEE7};
N = 8;
OP = { 'i32.sub_0', 'i32.store8_0', 'i32.store16_1', 'i32.store8_7', 'i32.load16_u_9', 'i32.store_10', 'i32.store16_11', 'i32.load_13' };
in_ops = [2, 2, 2, 2, 1, 2, 2, 1 ];
out_ops = [1, 0, 0, 0, 1, 0, 0, 1 ];
in1 = ['s(1)', 'in_0', 'in_2', 'local_1', 'in_5', 's(0)', 'in_7', 'in_10' ];
in2 = ['in_11', 'in_1', 'in_3', 'in_4', '.', 'in_6', 'in_8', '.' ];
in3 = ['.', '.', '.', '.', '.', '.', '.', '.' ];
out1 = ['s(2)', '.', '.', '.', 's(0)', '.', '.', 's(1)' ];
out2 = ['.', '.', '.', '.', '.', '.', '.', '.' ];
out3 = ['.', '.', '.', '.', '.', '.', '.', '.' ];
comm = [false, false, false, false, false, false, false, false ];
gas = [1, 1, 1, 1, 1, 1, 1, 1 ];
sz = [1, 1, 1, 1, 1, 1, 1, 1 ];
stor = [false, true, true, true, false, true, true, false ];
lb = [ 1, 1, 1, 1, 1, 1, 1, 1 ];
ub = [ 15, 15, 15, 15, 15, 15, 15, 15 ];
startstack = [ 'in_0', 'in_1', 'in_2', 'in_3', 'in_4', 'in_5', 'in_6', 'in_7', 'in_8', 'in_9', 'in_10', 'in_11', null, null, null, null, null ];
endstack = [ 's(2)', null, null, null, null, null, null, null, null, null, null, null, null, null, null, null, null ];
